NAME          DCAP_3_4_2_500_SS431
ROWS
 N  OBJ
 L  CON1
 L  CON2
 L  CON3
 L  CON4
 L  CON5
 L  CON6
 L  CON7
 L  CON8
 L  CON9
 L  CON10
 L  CON11
 L  CON12
 E  CON13
 E  CON14
 E  CON15
 E  CON16
 E  CON17
 E  CON18
 E  CON19
 E  CON20
COLUMNS
    x[1,1]    OBJ       6.180167      CON1      1.000000    
    x[1,1]    CON7      -1.000000     CON8      -1.000000   
    x[1,2]    OBJ       5.039546      CON2      1.000000    
    x[1,2]    CON8      -1.000000   
    x[2,1]    OBJ       6.732585      CON3      1.000000    
    x[2,1]    CON9      -1.000000     CON10     -1.000000   
    x[2,2]    OBJ       7.443064      CON4      1.000000    
    x[2,2]    CON10     -1.000000   
    x[3,1]    OBJ       6.563535      CON5      1.000000    
    x[3,1]    CON11     -1.000000     CON12     -1.000000   
    x[3,2]    OBJ       6.054841      CON6      1.000000    
    x[3,2]    CON12     -1.000000   
    MARKER    'MARKER'                'INTORG'
    u[1,1]    OBJ       48.076654     CON1      -1.000000   
    u[1,2]    OBJ       49.466655     CON2      -1.000000   
    u[2,1]    OBJ       49.996186     CON3      -1.000000   
    u[2,2]    OBJ       32.230043     CON4      -1.000000   
    u[3,1]    OBJ       20.066487     CON5      -1.000000   
    u[3,2]    OBJ       27.484319     CON6      -1.000000   
    y[1,1,1]  OBJ       5.718384      CON7      1.467493    
    y[1,1,1]  CON13     1.000000    
    y[1,1,2]  OBJ       9.467499      CON8      1.134570    
    y[1,1,2]  CON14     1.000000    
    y[1,2,1]  OBJ       5.496663      CON7      1.180333    
    y[1,2,1]  CON15     1.000000    
    y[1,2,2]  OBJ       5.154877      CON8      0.504975    
    y[1,2,2]  CON16     1.000000    
    y[1,3,1]  OBJ       5.809442      CON7      1.421362    
    y[1,3,1]  CON17     1.000000    
    y[1,3,2]  OBJ       8.574273      CON8      1.158796    
    y[1,3,2]  CON18     1.000000    
    y[1,4,1]  OBJ       7.885322      CON7      0.976374    
    y[1,4,1]  CON19     1.000000    
    y[1,4,2]  OBJ       6.144027      CON8      0.635411    
    y[1,4,2]  CON20     1.000000    
    y[2,1,1]  OBJ       8.714901      CON9      1.467493    
    y[2,1,1]  CON13     1.000000    
    y[2,1,2]  OBJ       9.660796      CON10     1.134570    
    y[2,1,2]  CON14     1.000000    
    y[2,2,1]  OBJ       5.650739      CON9      1.180333    
    y[2,2,1]  CON15     1.000000    
    y[2,2,2]  OBJ       8.349977      CON10     0.504975    
    y[2,2,2]  CON16     1.000000    
    y[2,3,1]  OBJ       6.718208      CON9      1.421362    
    y[2,3,1]  CON17     1.000000    
    y[2,3,2]  OBJ       6.627485      CON10     1.158796    
    y[2,3,2]  CON18     1.000000    
    y[2,4,1]  OBJ       8.537075      CON9      0.976374    
    y[2,4,1]  CON19     1.000000    
    y[2,4,2]  OBJ       9.414797      CON10     0.635411    
    y[2,4,2]  CON20     1.000000    
    y[3,1,1]  OBJ       5.492673      CON11     1.467493    
    y[3,1,1]  CON13     1.000000    
    y[3,1,2]  OBJ       7.719245      CON12     1.134570    
    y[3,1,2]  CON14     1.000000    
    y[3,2,1]  OBJ       7.164796      CON11     1.180333    
    y[3,2,1]  CON15     1.000000    
    y[3,2,2]  OBJ       5.875783      CON12     0.504975    
    y[3,2,2]  CON16     1.000000    
    y[3,3,1]  OBJ       9.110252      CON11     1.421362    
    y[3,3,1]  CON17     1.000000    
    y[3,3,2]  OBJ       7.993931      CON12     1.158796    
    y[3,3,2]  CON18     1.000000    
    y[3,4,1]  OBJ       8.930256      CON11     0.976374    
    y[3,4,1]  CON19     1.000000    
    y[3,4,2]  OBJ       6.153086      CON12     0.635411    
    y[3,4,2]  CON20     1.000000    
    z[1,1]    OBJ       607.370603    CON13     1.000000    
    z[1,2]    OBJ       753.443575    CON14     1.000000    
    z[2,1]    OBJ       798.412252    CON15     1.000000    
    z[2,2]    OBJ       598.531967    CON16     1.000000    
    z[3,1]    OBJ       588.266792    CON17     1.000000    
    z[3,2]    OBJ       995.716714    CON18     1.000000    
    z[4,1]    OBJ       917.096042    CON19     1.000000    
    z[4,2]    OBJ       814.619317    CON20     1.000000    
    MARKER    'MARKER'                 'INTEND'
RHS
    RHS       CON1      -0.000000     CON2      -0.000000   
    RHS       CON3      -0.000000     CON4      -0.000000   
    RHS       CON5      -0.000000     CON6      -0.000000   
    RHS       CON7      -0.000000     CON8      -0.000000   
    RHS       CON9      -0.000000     CON10     -0.000000   
    RHS       CON11     -0.000000     CON12     -0.000000   
    RHS       CON13     1.000000      CON14     1.000000    
    RHS       CON15     1.000000      CON16     1.000000    
    RHS       CON17     1.000000      CON18     1.000000    
    RHS       CON19     1.000000      CON20     1.000000    
BOUNDS
 BV BOUND     u[1,1]  
 BV BOUND     u[1,2]  
 BV BOUND     u[2,1]  
 BV BOUND     u[2,2]  
 BV BOUND     u[3,1]  
 BV BOUND     u[3,2]  
 BV BOUND     y[1,1,1]
 BV BOUND     y[1,1,2]
 BV BOUND     y[1,2,1]
 BV BOUND     y[1,2,2]
 BV BOUND     y[1,3,1]
 BV BOUND     y[1,3,2]
 BV BOUND     y[1,4,1]
 BV BOUND     y[1,4,2]
 BV BOUND     y[2,1,1]
 BV BOUND     y[2,1,2]
 BV BOUND     y[2,2,1]
 BV BOUND     y[2,2,2]
 BV BOUND     y[2,3,1]
 BV BOUND     y[2,3,2]
 BV BOUND     y[2,4,1]
 BV BOUND     y[2,4,2]
 BV BOUND     y[3,1,1]
 BV BOUND     y[3,1,2]
 BV BOUND     y[3,2,1]
 BV BOUND     y[3,2,2]
 BV BOUND     y[3,3,1]
 BV BOUND     y[3,3,2]
 BV BOUND     y[3,4,1]
 BV BOUND     y[3,4,2]
 BV BOUND     z[1,1]  
 BV BOUND     z[1,2]  
 BV BOUND     z[2,1]  
 BV BOUND     z[2,2]  
 BV BOUND     z[3,1]  
 BV BOUND     z[3,2]  
 BV BOUND     z[4,1]  
 BV BOUND     z[4,2]  
ENDATA
